(set-logic QF_S)
(declare-fun T_18 () Bool)
(declare-fun T_19 () Bool)
(declare-fun T_SELECT_4 () Bool)
(declare-fun I0_40 () Int)
(declare-fun I0_44 () Int)
(declare-fun I1_40 () Int)
(declare-fun I1_44 () Int)
(declare-fun I2_40 () Int)
(declare-fun I2_44 () Int)
(declare-fun PCTEMP_LHS_10 () Int)
(declare-fun T_1d () Int)
(declare-fun T0_35 () String)
(declare-fun T1_35 () String)
(declare-fun T_16 () String)
(assert (= T_16 (str.++ T0_35 T1_35)))
(assert (not (str.in.re T1_35 (str.to.re "="))))
(assert T_19)
(assert (= T_19 (not T_18)))
(assert (= T_18 (= PCTEMP_LHS_10 (- 1))))
(assert (= I0_40 (- PCTEMP_LHS_10 0)))
(assert (>= PCTEMP_LHS_10 0))
(assert (= I2_40 I1_40))
(assert (<= PCTEMP_LHS_10 I1_40))
(assert (>= I2_44 T_1d))
(assert (= I2_44 I1_44))
(assert (<= I2_44 I1_44))
(assert (= I0_44 (- I2_44 T_1d)))
(assert (>= T_1d 0))
(assert (= T_1d (+ PCTEMP_LHS_10 1)))
(assert (= PCTEMP_LHS_10 (- 1)))
(assert (= T_SELECT_4 (not (= PCTEMP_LHS_10 (- 1)))))
(assert (= 0 (str.len T0_35))) ; len 0
(assert (not T_SELECT_4))
(check-sat)
